c Reduced graph for queen11_11g generated by Cyril Grelier
p edge 121 1980
e 1 4
e 1 12
e 1 14
e 1 23
e 1 24
e 1 30
e 1 32
e 1 41
e 1 46
e 1 49
e 1 54
e 1 57
e 1 58
e 1 60
e 1 63
e 1 69
e 1 73
e 1 75
e 1 76
e 1 77
e 1 78
e 1 79
e 1 88
e 1 90
e 1 96
e 1 97
e 1 98
e 1 99
e 1 100
e 1 102
e 1 103
e 1 105
e 1 106
e 1 113
e 1 114
e 1 115
e 1 117
e 1 119
e 2 3
e 2 7
e 2 16
e 2 22
e 2 24
e 2 26
e 2 27
e 2 28
e 2 34
e 2 40
e 2 41
e 2 52
e 2 54
e 2 57
e 2 58
e 2 59
e 2 64
e 2 65
e 2 67
e 2 76
e 2 77
e 2 78
e 2 79
e 2 81
e 2 84
e 2 86
e 2 89
e 2 91
e 2 93
e 2 97
e 2 101
e 2 104
e 2 108
e 2 110
e 2 111
e 2 112
e 3 4
e 3 5
e 3 6
e 3 9
e 3 10
e 3 12
e 3 18
e 3 20
e 3 23
e 3 24
e 3 27
e 3 28
e 3 29
e 3 34
e 3 37
e 3 39
e 3 46
e 3 57
e 3 60
e 3 64
e 3 70
e 3 74
e 3 76
e 3 80
e 3 91
e 3 94
e 3 98
e 3 102
e 3 103
e 3 104
e 3 108
e 3 110
e 3 116
e 4 5
e 4 6
e 4 8
e 4 9
e 4 12
e 4 14
e 4 16
e 4 18
e 4 23
e 4 24
e 4 29
e 4 33
e 4 36
e 4 41
e 4 46
e 4 55
e 4 60
e 4 64
e 4 67
e 4 74
e 4 75
e 4 78
e 4 80
e 4 92
e 4 96
e 4 97
e 4 100
e 4 104
e 4 105
e 4 113
e 4 114
e 4 116
e 5 6
e 5 12
e 5 18
e 5 21
e 5 23
e 5 25
e 5 26
e 5 29
e 5 30
e 5 35
e 5 36
e 5 38
e 5 42
e 5 45
e 5 46
e 5 55
e 5 60
e 5 61
e 5 66
e 5 71
e 5 73
e 5 75
e 5 76
e 5 80
e 5 81
e 5 82
e 5 92
e 5 101
e 5 102
e 5 104
e 5 106
e 5 116
e 6 7
e 6 9
e 6 12
e 6 18
e 6 25
e 6 28
e 6 29
e 6 32
e 6 34
e 6 40
e 6 44
e 6 48
e 6 51
e 6 52
e 6 53
e 6 54
e 6 60
e 6 68
e 6 72
e 6 73
e 6 74
e 6 77
e 6 80
e 6 87
e 6 100
e 6 104
e 6 107
e 6 112
e 6 113
e 6 116
e 6 119
e 7 9
e 7 11
e 7 18
e 7 25
e 7 31
e 7 37
e 7 38
e 7 41
e 7 44
e 7 48
e 7 50
e 7 53
e 7 54
e 7 56
e 7 57
e 7 58
e 7 59
e 7 65
e 7 68
e 7 73
e 7 74
e 7 77
e 7 78
e 7 87
e 7 93
e 7 99
e 7 105
e 7 106
e 7 109
e 7 110
e 7 112
e 7 118
e 8 10
e 8 17
e 8 21
e 8 24
e 8 25
e 8 27
e 8 33
e 8 36
e 8 39
e 8 58
e 8 59
e 8 63
e 8 66
e 8 67
e 8 70
e 8 72
e 8 73
e 8 74
e 8 76
e 8 77
e 8 80
e 8 81
e 8 83
e 8 85
e 8 92
e 8 97
e 8 98
e 8 103
e 8 105
e 8 107
e 8 112
e 8 114
e 8 118
e 9 10
e 9 14
e 9 16
e 9 33
e 9 34
e 9 35
e 9 36
e 9 39
e 9 43
e 9 46
e 9 48
e 9 49
e 9 53
e 9 54
e 9 55
e 9 61
e 9 64
e 9 68
e 9 70
e 9 73
e 9 74
e 9 75
e 9 77
e 9 87
e 9 103
e 9 111
e 9 113
e 9 117
e 10 12
e 10 13
e 10 15
e 10 17
e 10 21
e 10 23
e 10 24
e 10 31
e 10 38
e 10 43
e 10 46
e 10 52
e 10 53
e 10 65
e 10 69
e 10 70
e 10 75
e 10 76
e 10 77
e 10 82
e 10 84
e 10 85
e 10 86
e 10 94
e 10 103
e 10 105
e 10 107
e 10 112
e 10 114
e 11 13
e 11 14
e 11 15
e 11 17
e 11 18
e 11 19
e 11 25
e 11 26
e 11 28
e 11 30
e 11 31
e 11 35
e 11 37
e 11 40
e 11 51
e 11 55
e 11 60
e 11 62
e 11 71
e 11 74
e 11 78
e 11 82
e 11 83
e 11 90
e 11 99
e 11 100
e 11 103
e 11 104
e 11 110
e 11 111
e 11 118
e 12 13
e 12 17
e 12 18
e 12 24
e 12 29
e 12 38
e 12 39
e 12 43
e 12 49
e 12 60
e 12 64
e 12 69
e 12 73
e 12 79
e 12 80
e 12 84
e 12 86
e 12 90
e 12 94
e 12 103
e 12 104
e 12 106
e 12 112
e 12 114
e 12 115
e 12 116
e 13 17
e 13 19
e 13 26
e 13 27
e 13 28
e 13 30
e 13 34
e 13 38
e 13 42
e 13 43
e 13 54
e 13 55
e 13 56
e 13 65
e 13 68
e 13 69
e 13 74
e 13 78
e 13 80
e 13 84
e 13 86
e 13 94
e 13 95
e 13 100
e 13 103
e 13 107
e 13 112
e 13 114
e 13 116
e 14 16
e 14 32
e 14 33
e 14 37
e 14 40
e 14 54
e 14 55
e 14 58
e 14 60
e 14 62
e 14 64
e 14 66
e 14 71
e 14 75
e 14 76
e 14 82
e 14 83
e 14 85
e 14 88
e 14 90
e 14 96
e 14 99
e 14 102
e 14 106
e 14 108
e 14 111
e 14 114
e 14 119
e 15 16
e 15 18
e 15 19
e 15 20
e 15 23
e 15 24
e 15 31
e 15 32
e 15 35
e 15 41
e 15 44
e 15 47
e 15 48
e 15 51
e 15 52
e 15 53
e 15 56
e 15 65
e 15 66
e 15 75
e 15 82
e 15 83
e 15 88
e 15 89
e 15 101
e 15 104
e 15 107
e 15 117
e 16 18
e 16 19
e 16 20
e 16 21
e 16 33
e 16 37
e 16 40
e 16 44
e 16 47
e 16 55
e 16 64
e 16 66
e 16 67
e 16 75
e 16 77
e 16 78
e 16 79
e 16 81
e 16 86
e 16 88
e 16 89
e 16 101
e 16 108
e 16 115
e 16 117
e 17 19
e 17 21
e 17 22
e 17 26
e 17 28
e 17 30
e 17 39
e 17 45
e 17 49
e 17 50
e 17 55
e 17 64
e 17 65
e 17 67
e 17 70
e 17 74
e 17 76
e 17 77
e 17 85
e 17 100
e 17 103
e 17 105
e 17 116
e 17 119
e 17 120
e 18 19
e 18 20
e 18 25
e 18 29
e 18 31
e 18 44
e 18 47
e 18 60
e 18 66
e 18 78
e 18 80
e 18 88
e 18 89
e 18 99
e 18 104
e 18 110
e 18 111
e 18 116
e 18 117
e 18 118
e 18 121
e 19 20
e 19 26
e 19 28
e 19 30
e 19 33
e 19 44
e 19 47
e 19 55
e 19 60
e 19 61
e 19 66
e 19 74
e 19 79
e 19 82
e 19 87
e 19 88
e 19 89
e 19 91
e 19 92
e 19 100
e 19 102
e 19 103
e 19 105
e 19 117
e 20 23
e 20 37
e 20 39
e 20 41
e 20 42
e 20 44
e 20 45
e 20 47
e 20 62
e 20 63
e 20 66
e 20 74
e 20 84
e 20 85
e 20 87
e 20 88
e 20 89
e 20 90
e 20 94
e 20 98
e 20 102
e 20 108
e 20 110
e 20 115
e 20 117
e 21 22
e 21 25
e 21 26
e 21 35
e 21 37
e 21 42
e 21 47
e 21 48
e 21 69
e 21 75
e 21 76
e 21 77
e 21 85
e 21 90
e 21 91
e 21 92
e 21 93
e 21 95
e 21 96
e 21 101
e 21 102
e 21 105
e 21 106
e 21 115
e 21 118
e 22 26
e 22 45
e 22 47
e 22 48
e 22 49
e 22 50
e 22 52
e 22 54
e 22 59
e 22 65
e 22 67
e 22 69
e 22 70
e 22 84
e 22 89
e 22 90
e 22 91
e 22 93
e 22 95
e 22 96
e 22 97
e 22 104
e 22 111
e 22 116
e 22 118
e 22 119
e 22 120
e 23 24
e 23 31
e 23 37
e 23 38
e 23 39
e 23 41
e 23 45
e 23 46
e 23 52
e 23 53
e 23 55
e 23 61
e 23 65
e 23 71
e 23 73
e 23 74
e 23 75
e 23 76
e 23 78
e 23 81
e 23 82
e 23 94
e 23 96
e 23 97
e 23 98
e 23 100
e 23 102
e 23 105
e 23 107
e 23 108
e 23 113
e 24 27
e 24 28
e 24 31
e 24 34
e 24 36
e 24 49
e 24 52
e 24 53
e 24 57
e 24 64
e 24 65
e 24 67
e 24 73
e 24 74
e 24 75
e 24 76
e 24 79
e 24 82
e 24 90
e 24 91
e 24 92
e 24 103
e 24 106
e 24 107
e 24 110
e 24 114
e 24 115
e 25 26
e 25 27
e 25 31
e 25 32
e 25 33
e 25 34
e 25 35
e 25 40
e 25 42
e 25 44
e 25 52
e 25 66
e 25 70
e 25 72
e 25 73
e 25 75
e 25 78
e 25 83
e 25 92
e 25 97
e 25 98
e 25 99
e 25 100
e 25 101
e 25 102
e 25 106
e 25 110
e 25 112
e 25 118
e 26 28
e 26 29
e 26 30
e 26 31
e 26 35
e 26 42
e 26 52
e 26 54
e 26 55
e 26 59
e 26 68
e 26 74
e 26 75
e 26 83
e 26 84
e 26 88
e 26 89
e 26 92
e 26 97
e 26 100
e 26 101
e 26 102
e 26 103
e 26 104
e 26 106
e 26 111
e 26 113
e 27 28
e 27 29
e 27 33
e 27 34
e 27 35
e 27 42
e 27 50
e 27 53
e 27 54
e 27 56
e 27 57
e 27 58
e 27 64
e 27 66
e 27 70
e 27 73
e 27 76
e 27 78
e 27 83
e 27 86
e 27 91
e 27 95
e 27 97
e 27 98
e 27 100
e 27 107
e 27 110
e 27 112
e 27 116
e 27 121
e 28 30
e 28 34
e 28 43
e 28 47
e 28 51
e 28 53
e 28 55
e 28 57
e 28 62
e 28 64
e 28 74
e 28 76
e 28 80
e 28 91
e 28 97
e 28 99
e 28 100
e 28 101
e 28 103
e 28 107
e 28 109
e 28 110
e 28 112
e 28 113
e 28 119
e 28 120
e 29 31
e 29 35
e 29 36
e 29 50
e 29 51
e 29 52
e 29 53
e 29 55
e 29 56
e 29 58
e 29 60
e 29 68
e 29 79
e 29 80
e 29 83
e 29 85
e 29 86
e 29 88
e 29 93
e 29 98
e 29 99
e 29 100
e 29 104
e 29 113
e 29 116
e 29 121
e 30 31
e 30 32
e 30 33
e 30 36
e 30 46
e 30 55
e 30 57
e 30 60
e 30 61
e 30 63
e 30 66
e 30 69
e 30 74
e 30 75
e 30 77
e 30 82
e 30 95
e 30 98
e 30 100
e 30 103
e 30 104
e 30 108
e 30 109
e 30 115
e 30 117
e 30 121
e 31 32
e 31 33
e 31 52
e 31 53
e 31 61
e 31 65
e 31 68
e 31 75
e 31 78
e 31 82
e 31 83
e 31 88
e 31 95
e 31 99
e 31 104
e 31 107
e 31 108
e 31 109
e 31 110
e 31 113
e 31 115
e 31 118
e 31 121
e 32 33
e 32 34
e 32 40
e 32 41
e 32 44
e 32 48
e 32 52
e 32 54
e 32 56
e 32 58
e 32 61
e 32 72
e 32 76
e 32 83
e 32 88
e 32 95
e 32 99
e 32 100
e 32 101
e 32 102
e 32 104
e 32 108
e 32 109
e 32 114
e 32 115
e 32 119
e 32 121
e 33 55
e 33 61
e 33 64
e 33 66
e 33 70
e 33 73
e 33 75
e 33 79
e 33 82
e 33 83
e 33 87
e 33 91
e 33 95
e 33 97
e 33 98
e 33 102
e 33 104
e 33 105
e 33 108
e 33 109
e 33 112
e 33 115
e 33 121
e 34 35
e 34 36
e 34 39
e 34 40
e 34 43
e 34 44
e 34 49
e 34 52
e 34 57
e 34 61
e 34 64
e 34 65
e 34 68
e 34 72
e 34 76
e 34 80
e 34 91
e 34 100
e 34 110
e 34 111
e 34 113
e 34 117
e 35 36
e 35 39
e 35 42
e 35 43
e 35 49
e 35 50
e 35 51
e 35 53
e 35 58
e 35 61
e 35 75
e 35 86
e 35 92
e 35 100
e 35 101
e 35 102
e 35 104
e 35 106
e 35 111
e 35 113
e 35 117
e 35 121
e 36 39
e 36 43
e 36 46
e 36 49
e 36 51
e 36 52
e 36 55
e 36 56
e 36 61
e 36 66
e 36 67
e 36 74
e 36 79
e 36 82
e 36 85
e 36 92
e 36 93
e 36 98
e 36 99
e 36 111
e 36 113
e 36 114
e 36 117
e 37 38
e 37 39
e 37 40
e 37 44
e 37 50
e 37 56
e 37 57
e 37 59
e 37 60
e 37 62
e 37 71
e 37 74
e 37 82
e 37 83
e 37 90
e 37 94
e 37 98
e 37 102
e 37 105
e 37 106
e 37 108
e 37 109
e 37 111
e 37 115
e 38 43
e 38 44
e 38 45
e 38 50
e 38 55
e 38 56
e 38 57
e 38 59
e 38 61
e 38 63
e 38 67
e 38 69
e 38 71
e 38 73
e 38 76
e 38 81
e 38 84
e 38 86
e 38 91
e 38 94
e 38 105
e 38 106
e 38 109
e 38 112
e 38 114
e 39 43
e 39 49
e 39 58
e 39 59
e 39 61
e 39 63
e 39 64
e 39 72
e 39 74
e 39 80
e 39 81
e 39 94
e 39 98
e 39 102
e 39 103
e 39 107
e 39 108
e 39 111
e 39 113
e 39 117
e 39 118
e 40 42
e 40 44
e 40 52
e 40 60
e 40 62
e 40 67
e 40 71
e 40 72
e 40 77
e 40 78
e 40 79
e 40 81
e 40 82
e 40 83
e 40 86
e 40 88
e 40 90
e 40 93
e 40 100
e 40 101
e 40 108
e 40 109
e 40 111
e 41 42
e 41 45
e 41 46
e 41 48
e 41 56
e 41 58
e 41 62
e 41 63
e 41 65
e 41 78
e 41 83
e 41 84
e 41 85
e 41 87
e 41 93
e 41 96
e 41 97
e 41 100
e 41 101
e 41 105
e 41 110
e 41 112
e 41 113
e 41 115
e 42 45
e 42 54
e 42 56
e 42 62
e 42 63
e 42 75
e 42 78
e 42 84
e 42 85
e 42 87
e 42 88
e 42 92
e 42 93
e 42 95
e 42 101
e 42 102
e 42 106
e 42 107
e 42 109
e 42 110
e 42 115
e 42 116
e 43 47
e 43 49
e 43 53
e 43 61
e 43 62
e 43 69
e 43 72
e 43 80
e 43 84
e 43 86
e 43 94
e 43 97
e 43 99
e 43 101
e 43 109
e 43 111
e 43 112
e 43 113
e 43 114
e 43 116
e 43 117
e 43 120
e 44 47
e 44 50
e 44 52
e 44 56
e 44 57
e 44 59
e 44 62
e 44 66
e 44 72
e 44 88
e 44 89
e 44 95
e 44 100
e 44 105
e 44 106
e 44 109
e 44 117
e 45 49
e 45 50
e 45 55
e 45 61
e 45 62
e 45 63
e 45 65
e 45 67
e 45 69
e 45 70
e 45 71
e 45 73
e 45 76
e 45 81
e 45 84
e 45 85
e 45 87
e 45 110
e 45 115
e 45 116
e 45 119
e 45 120
e 46 51
e 46 64
e 46 66
e 46 68
e 46 70
e 46 71
e 46 72
e 46 78
e 46 82
e 46 89
e 46 92
e 46 94
e 46 96
e 46 97
e 46 100
e 46 103
e 46 105
e 46 113
e 46 120
e 46 121
e 47 48
e 47 53
e 47 62
e 47 66
e 47 69
e 47 80
e 47 88
e 47 89
e 47 90
e 47 91
e 47 93
e 47 95
e 47 96
e 47 97
e 47 99
e 47 101
e 47 109
e 47 117
e 47 118
e 47 120
e 48 53
e 48 54
e 48 56
e 48 59
e 48 68
e 48 69
e 48 73
e 48 74
e 48 77
e 48 83
e 48 86
e 48 87
e 48 90
e 48 91
e 48 93
e 48 95
e 48 96
e 48 101
e 48 110
e 48 118
e 48 119
e 49 50
e 49 61
e 49 65
e 49 67
e 49 70
e 49 73
e 49 79
e 49 90
e 49 94
e 49 103
e 49 106
e 49 111
e 49 113
e 49 115
e 49 116
e 49 117
e 49 119
e 49 120
e 50 53
e 50 56
e 50 57
e 50 58
e 50 59
e 50 65
e 50 67
e 50 70
e 50 84
e 50 86
e 50 100
e 50 105
e 50 106
e 50 109
e 50 116
e 50 118
e 50 119
e 50 120
e 50 121
e 51 52
e 51 55
e 51 56
e 51 64
e 51 68
e 51 71
e 51 72
e 51 79
e 51 85
e 51 89
e 51 92
e 51 93
e 51 94
e 51 98
e 51 99
e 51 104
e 51 107
e 51 112
e 51 113
e 51 119
e 51 120
e 51 121
e 52 53
e 52 54
e 52 55
e 52 56
e 52 59
e 52 65
e 52 72
e 52 75
e 52 79
e 52 82
e 52 84
e 52 85
e 52 89
e 52 93
e 52 97
e 52 98
e 52 99
e 52 100
e 52 104
e 52 107
e 52 111
e 53 54
e 53 58
e 53 62
e 53 65
e 53 68
e 53 73
e 53 74
e 53 75
e 53 77
e 53 80
e 53 82
e 53 86
e 53 87
e 53 97
e 53 99
e 53 100
e 53 101
e 53 107
e 53 109
e 53 120
e 53 121
e 54 56
e 54 58
e 54 59
e 54 68
e 54 73
e 54 74
e 54 76
e 54 77
e 54 78
e 54 84
e 54 87
e 54 88
e 54 89
e 54 95
e 54 97
e 54 99
e 54 102
e 54 104
e 54 107
e 54 111
e 54 114
e 54 116
e 54 119
e 55 56
e 55 61
e 55 64
e 55 71
e 55 73
e 55 74
e 55 75
e 55 76
e 55 79
e 55 81
e 55 85
e 55 93
e 55 98
e 55 99
e 55 100
e 55 103
e 56 57
e 56 59
e 56 78
e 56 79
e 56 83
e 56 85
e 56 93
e 56 95
e 56 98
e 56 99
e 56 101
e 56 105
e 56 106
e 56 107
e 56 109
e 56 116
e 57 59
e 57 60
e 57 63
e 57 64
e 57 69
e 57 70
e 57 75
e 57 76
e 57 77
e 57 81
e 57 87
e 57 91
e 57 96
e 57 98
e 57 105
e 57 106
e 57 109
e 57 110
e 57 114
e 57 117
e 58 59
e 58 63
e 58 65
e 58 72
e 58 76
e 58 80
e 58 81
e 58 86
e 58 88
e 58 93
e 58 99
e 58 100
e 58 102
e 58 103
e 58 107
e 58 112
e 58 114
e 58 118
e 58 119
e 58 121
e 59 63
e 59 72
e 59 80
e 59 81
e 59 84
e 59 86
e 59 89
e 59 97
e 59 103
e 59 104
e 59 105
e 59 106
e 59 107
e 59 109
e 59 110
e 59 111
e 59 118
e 59 119
e 60 61
e 60 62
e 60 63
e 60 69
e 60 71
e 60 75
e 60 77
e 60 80
e 60 82
e 60 83
e 60 90
e 60 92
e 60 98
e 60 104
e 60 111
e 60 116
e 60 117
e 61 71
e 61 73
e 61 76
e 61 81
e 61 92
e 61 95
e 61 104
e 61 108
e 61 109
e 61 111
e 61 113
e 61 115
e 61 117
e 61 121
e 62 63
e 62 71
e 62 80
e 62 82
e 62 83
e 62 84
e 62 85
e 62 87
e 62 90
e 62 95
e 62 97
e 62 99
e 62 101
e 62 109
e 62 110
e 62 111
e 62 115
e 62 120
e 63 67
e 63 69
e 63 72
e 63 75
e 63 77
e 63 80
e 63 81
e 63 84
e 63 85
e 63 87
e 63 91
e 63 98
e 63 103
e 63 107
e 63 110
e 63 115
e 63 117
e 63 118
e 64 68
e 64 71
e 64 72
e 64 75
e 64 76
e 64 89
e 64 91
e 64 92
e 64 94
e 64 110
e 64 120
e 64 121
e 65 67
e 65 68
e 65 70
e 65 75
e 65 80
e 65 82
e 65 93
e 65 107
e 65 112
e 65 116
e 65 119
e 65 120
e 66 70
e 66 73
e 66 82
e 66 83
e 66 85
e 66 88
e 66 89
e 66 96
e 66 97
e 66 98
e 66 106
e 66 108
e 66 112
e 66 117
e 67 70
e 67 74
e 67 77
e 67 78
e 67 79
e 67 81
e 67 86
e 67 91
e 67 92
e 67 101
e 67 108
e 67 114
e 67 116
e 67 119
e 67 120
e 68 71
e 68 72
e 68 73
e 68 74
e 68 77
e 68 80
e 68 83
e 68 87
e 68 88
e 68 89
e 68 92
e 68 94
e 68 113
e 68 120
e 68 121
e 69 75
e 69 77
e 69 84
e 69 86
e 69 90
e 69 91
e 69 93
e 69 94
e 69 95
e 69 96
e 69 98
e 69 112
e 69 114
e 69 117
e 69 118
e 70 73
e 70 81
e 70 83
e 70 87
e 70 96
e 70 97
e 70 98
e 70 103
e 70 112
e 70 114
e 70 116
e 70 119
e 70 120
e 71 72
e 71 73
e 71 76
e 71 81
e 71 82
e 71 83
e 71 89
e 71 90
e 71 92
e 71 94
e 71 111
e 71 117
e 71 120
e 71 121
e 72 80
e 72 81
e 72 89
e 72 92
e 72 94
e 72 100
e 72 103
e 72 107
e 72 116
e 72 118
e 72 120
e 72 121
e 73 74
e 73 76
e 73 77
e 73 79
e 73 81
e 73 83
e 73 87
e 73 90
e 73 97
e 73 98
e 73 103
e 73 106
e 73 112
e 73 115
e 74 77
e 74 87
e 74 92
e 74 94
e 74 98
e 74 100
e 74 102
e 74 103
e 74 108
e 74 114
e 75 77
e 75 82
e 75 92
e 75 98
e 75 101
e 75 102
e 75 106
e 75 107
e 75 117
e 76 77
e 76 81
e 76 85
e 76 88
e 76 91
e 76 99
e 76 102
e 76 105
e 76 110
e 76 114
e 76 119
e 77 78
e 77 79
e 77 81
e 77 85
e 77 86
e 77 87
e 77 98
e 77 101
e 77 105
e 77 108
e 77 117
e 78 79
e 78 81
e 78 86
e 78 95
e 78 96
e 78 97
e 78 99
e 78 100
e 78 101
e 78 105
e 78 107
e 78 108
e 78 110
e 78 113
e 78 116
e 78 118
e 79 81
e 79 82
e 79 85
e 79 86
e 79 87
e 79 90
e 79 91
e 79 93
e 79 98
e 79 99
e 79 101
e 79 102
e 79 103
e 79 105
e 79 106
e 79 108
e 79 115
e 80 81
e 80 97
e 80 99
e 80 101
e 80 103
e 80 104
e 80 107
e 80 109
e 80 116
e 80 118
e 80 120
e 81 86
e 81 87
e 81 96
e 81 101
e 81 103
e 81 107
e 81 108
e 81 114
e 81 118
e 82 83
e 82 87
e 82 90
e 82 91
e 82 102
e 82 105
e 82 107
e 82 111
e 83 88
e 83 90
e 83 97
e 83 98
e 83 101
e 83 111
e 83 112
e 83 113
e 84 85
e 84 86
e 84 87
e 84 89
e 84 94
e 84 97
e 84 104
e 84 110
e 84 111
e 84 112
e 84 114
e 84 115
e 84 118
e 85 87
e 85 93
e 85 96
e 85 98
e 85 99
e 85 105
e 85 106
e 85 108
e 85 110
e 85 115
e 86 94
e 86 100
e 86 101
e 86 108
e 86 110
e 86 112
e 86 114
e 86 119
e 86 121
e 87 91
e 87 96
e 87 102
e 87 105
e 87 110
e 87 114
e 87 115
e 88 89
e 88 93
e 88 99
e 88 102
e 88 109
e 88 113
e 88 114
e 88 117
e 88 119
e 89 92
e 89 94
e 89 97
e 89 104
e 89 111
e 89 117
e 89 120
e 89 121
e 90 91
e 90 93
e 90 95
e 90 96
e 90 103
e 90 106
e 90 111
e 90 115
e 90 118
e 91 93
e 91 95
e 91 96
e 91 102
e 91 105
e 91 110
e 91 118
e 92 94
e 92 101
e 92 102
e 92 106
e 92 114
e 92 120
e 92 121
e 93 95
e 93 96
e 93 98
e 93 99
e 93 109
e 93 112
e 93 118
e 94 98
e 94 102
e 94 108
e 94 112
e 94 114
e 94 120
e 94 121
e 95 96
e 95 104
e 95 107
e 95 108
e 95 109
e 95 115
e 95 116
e 95 118
e 95 121
e 96 97
e 96 100
e 96 105
e 96 106
e 96 108
e 96 113
e 96 114
e 96 118
e 97 98
e 97 99
e 97 100
e 97 101
e 97 104
e 97 105
e 97 109
e 97 111
e 97 112
e 97 113
e 97 120
e 98 99
e 98 102
e 98 108
e 98 112
e 98 117
e 99 101
e 99 102
e 99 109
e 99 110
e 99 114
e 99 118
e 99 119
e 99 120
e 100 103
e 100 105
e 100 113
e 100 121
e 101 102
e 101 106
e 101 108
e 101 109
e 101 120
e 102 105
e 102 106
e 102 108
e 102 114
e 102 119
e 103 106
e 103 107
e 103 115
e 103 118
e 104 108
e 104 109
e 104 111
e 104 115
e 104 116
e 104 121
e 105 106
e 105 109
e 105 113
e 106 108
e 106 109
e 106 115
e 107 112
e 107 113
e 107 116
e 107 118
e 107 119
e 108 109
e 108 115
e 108 121
e 109 115
e 109 120
e 109 121
e 110 115
e 110 118
e 110 119
e 111 113
e 111 117
e 111 121
e 112 113
e 112 114
e 112 119
e 113 117
e 113 119
e 114 119
e 115 121
e 116 119
e 116 120
e 119 120
e 120 121
